************************************************************************
file with basedata            : j60_47.bas
initial value random generator: 1565009315
************************************************************************
projects                      :  1
jobs (incl. supersource/sink ):  62
horizon                       :  319
RESOURCES
  - renewable                 :  4   R
  - nonrenewable              :  0   N
  - doubly constrained        :  0   D
************************************************************************
PROJECT INFORMATION:
pronr.  #jobs rel.date duedate tardcost  MPM-Time
    1     60      0       76       41       76
************************************************************************
PRECEDENCE RELATIONS:
jobnr.    #modes  #successors   successors
   1        1          3           2   3   4
   2        1          1           7
   3        1          1           8
   4        1          3           5  14  17
   5        1          3           6  12  21
   6        1          2           9  13
   7        1          1          18
   8        1          3           9  10  27
   9        1          2          35  61
  10        1          3          11  33  43
  11        1          3          15  22  35
  12        1          3          45  46  58
  13        1          3          19  22  30
  14        1          2          20  38
  15        1          2          16  24
  16        1          3          28  50  54
  17        1          1          23
  18        1          3          20  29  39
  19        1          2          40  41
  20        1          3          24  27  33
  21        1          2          26  47
  22        1          1          23
  23        1          2          32  36
  24        1          3          25  40  48
  25        1          1          49
  26        1          1          40
  27        1          1          42
  28        1          3          49  51  52
  29        1          3          31  32  50
  30        1          1          56
  31        1          3          34  46  51
  32        1          1          44
  33        1          2          42  57
  34        1          3          35  36  37
  35        1          2          52  60
  36        1          1          60
  37        1          1          38
  38        1          3          41  44  49
  39        1          1          58
  40        1          2          46  51
  41        1          3          42  43  56
  42        1          2          45  54
  43        1          1          47
  44        1          1          45
  45        1          1          52
  46        1          1          56
  47        1          1          53
  48        1          3          50  54  55
  49        1          3          53  60  61
  50        1          1          57
  51        1          1          55
  52        1          1          59
  53        1          1          55
  54        1          1          58
  55        1          1          57
  56        1          1          61
  57        1          1          59
  58        1          1          59
  59        1          1          62
  60        1          1          62
  61        1          1          62
  62        1          0        
************************************************************************
REQUESTS/DURATIONS:
jobnr. mode duration  R 1  R 2  R 3  R 4
------------------------------------------------------------------------
  1      1     0       0    0    0    0
  2      1     6       3    5    5    2
  3      1     9       1    5    8    5
  4      1     7       2    3    4    3
  5      1     1       3    9    3    5
  6      1     8       5    9    5    5
  7      1     2       4    7    8    7
  8      1     4      10    8    1    1
  9      1     2       8    5    4   10
 10      1     3       3    6    5    3
 11      1     3       5    2    6    8
 12      1     3       9    9    8    7
 13      1     9       8    4    2    1
 14      1    10       7    7    3    9
 15      1     1       8    4    8    7
 16      1     4       6    8    9    8
 17      1     5       2    1    4    9
 18      1     9       3    7    7    2
 19      1     4      10    3    1    1
 20      1     3       2    1    9    2
 21      1     9       3    2    7    9
 22      1     3       3    1    6    7
 23      1     1       9    1    1    4
 24      1     4       3    3    9    5
 25      1     9       5    1    2    5
 26      1     7       9    6    4    5
 27      1     2       4    7    7    4
 28      1     8       6    9    6    9
 29      1    10       2    8    4   10
 30      1     8      10    9    1    9
 31      1     4       6    4    9   10
 32      1     7       2    7    2    9
 33      1     7       1    1    5    6
 34      1    10       5    5    6   10
 35      1    10       2   10    5    6
 36      1     4       8    3    8    4
 37      1     1       5    6    2    5
 38      1     2      10    8    3    3
 39      1     6       7    9    3    1
 40      1     4       6    6    1    1
 41      1     2       4    8    5   10
 42      1     8       5    6    8    1
 43      1     5       2    3    2    1
 44      1     1       7    2    4    1
 45      1     2       6    6    4    8
 46      1     9      10    2    4    6
 47      1     5       7    7    3    2
 48      1     8       9    7    8    5
 49      1     4      10    2    2    3
 50      1     8       1   10   10    8
 51      1    10       6   10    3    2
 52      1     5      10    7   10    7
 53      1     7       8    8    7    5
 54      1     1       4   10    5    7
 55      1     6       4    2    5    4
 56      1     2       2    9    5    2
 57      1     6       3    3   10    6
 58      1     8       9    2    3    4
 59      1     1       1   10   10    1
 60      1     3       9   10    4    1
 61      1     9       2    9    5    8
 62      1     0       0    0    0    0
************************************************************************
RESOURCEAVAILABILITIES:
  R 1  R 2  R 3  R 4
   42   35   33   39
************************************************************************
